WARNING: for repeatability, setting FPU to use double precision
============================[ Problem Statistics ]=============================
|                                                                             |
|  Number of variables:        120049                                         |
|  Number of clauses:         2246893                                         |
|  Parse time:                   1.06 s                                       |
|  Eliminated clauses:           0.07 Mb                                      |
|  Simplification time:          1.35 s                                       |
|                                                                             |
============================[ Search Statistics ]==============================
| Conflicts |          ORIGINAL         |          LEARNT          | Progress |
|           |    Vars  Clauses Literals |    Limit  Clauses Lit/Cl |          |
===============================================================================
|       100 |   10720   173709   509121 |    63693      100     48 | 88.197 % |
|       250 |   10720   173709   509121 |    70062      250     46 | 88.197 % |
|       475 |   10720   173709   509121 |    77068      475     46 | 88.197 % |
|       812 |   10720   173709   509121 |    84775      812     48 | 88.197 % |
|      1318 |   10720   173709   509121 |    93253     1318     49 | 88.197 % |
|      2077 |   10720   173709   509121 |   102578     2077     52 | 88.197 % |
|      3216 |   10720   173709   509121 |   112836     3216     55 | 88.197 % |
|      4924 |   10720   173709   509121 |   124120     4924     57 | 88.197 % |
|      7486 |   10720   173709   509121 |   136532     7486     56 | 88.197 % |
|     11330 |   10720   173709   509121 |   150185    11330     64 | 88.197 % |
|     17096 |   10720   173709   509121 |   165204    17096     64 | 88.197 % |
|     25745 |   10720   173709   509121 |   181724    25745     61 | 88.197 % |
|     38719 |   10720   173709   509121 |   199896    38719     63 | 88.197 % |
|     58180 |   10720   173709   509121 |   219886    58180     65 | 88.197 % |
|     87372 |   10720   173709   509121 |   241875    87372     66 | 88.197 % |
|    131161 |   10720   173709   509121 |   266062   131161     66 | 88.197 % |
|    196845 |   10720   173709   509121 |   292668   196845     68 | 88.197 % |
|    295371 |   10720   173709   509121 |   321935   295371     71 | 88.197 % |
|    443160 |   10720   173709   509121 |   354129    21409    105 | 88.197 % |
|    664843 |   10720   173709   509121 |   389542   243092     74 | 88.197 % |
|    997368 |   10720   173709   509121 |   428496    93370     79 | 88.197 % |
|   1496156 |   10720   173709   509121 |   471346    71646    110 | 88.197 % |
|   2244338 |   10720   173709   509121 |   518480   257387    184 | 88.197 % |
===============================================================================
restarts              : 5114
conflicts             : 2877035        (14572 /sec)
decisions             : 15574836       (0.00 % random) (78885 /sec)
propagations          : 220128403      (1114925 /sec)
conflict literals     : 260751048      (7.80 % deleted)
Memory used           : 550.00 MB
CPU time              : 197.438 s

INDETERMINATE
WARNING: for repeatability, setting FPU to use double precision
============================[ Problem Statistics ]=============================
|                                                                             |
|  Number of variables:        120049                                         |
|  Number of clauses:         2246893                                         |
|  Parse time:                   0.80 s                                       |
|  Eliminated clauses:           0.07 Mb                                      |
|  Simplification time:          0.94 s                                       |
|                                                                             |
============================[ Search Statistics ]==============================
| Conflicts |          ORIGINAL         |          LEARNT          | Progress |
|           |    Vars  Clauses Literals |    Limit  Clauses Lit/Cl |          |
===============================================================================
|       100 |   10720   173709   509121 |    63693      100     48 | 88.197 % |
|       250 |   10720   173709   509121 |    70062      250     46 | 88.197 % |
|       475 |   10720   173709   509121 |    77068      475     46 | 88.197 % |
|       812 |   10720   173709   509121 |    84775      812     48 | 88.197 % |
|      1318 |   10720   173709   509121 |    93253     1318     49 | 88.197 % |
|      2077 |   10720   173709   509121 |   102578     2077     52 | 88.197 % |
|      3216 |   10720   173709   509121 |   112836     3216     55 | 88.197 % |
|      4924 |   10720   173709   509121 |   124120     4924     57 | 88.197 % |
|      7486 |   10720   173709   509121 |   136532     7486     56 | 88.197 % |
|     11330 |   10720   173709   509121 |   150185    11330     64 | 88.197 % |
|     17096 |   10720   173709   509121 |   165204    17096     64 | 88.197 % |
|     25745 |   10720   173709   509121 |   181724    25745     61 | 88.197 % |
|     38719 |   10720   173709   509121 |   199896    38719     63 | 88.197 % |
|     58180 |   10720   173709   509121 |   219886    58180     65 | 88.197 % |
|     87372 |   10720   173709   509121 |   241875    87372     66 | 88.197 % |
|    131161 |   10720   173709   509121 |   266062   131161     66 | 88.197 % |
|    196845 |   10720   173709   509121 |   292668   196845     68 | 88.197 % |
|    295371 |   10720   173709   509121 |   321935   295371     71 | 88.197 % |
|    443160 |   10720   173709   509121 |   354129    21409    105 | 88.197 % |
|    664843 |   10720   173709   509121 |   389542   243092     74 | 88.197 % |
|    997368 |   10720   173709   509121 |   428496    93370     79 | 88.197 % |
|   1496156 |   10720   173709   509121 |   471346    71646    110 | 88.197 % |
|   2244338 |   10720   173709   509121 |   518480   257387    184 | 88.197 % |
|   3366612 |   10720   173709   509121 |   570329   157602     70 | 88.197 % |
|   5050023 |   10720   173709   509121 |   627361   510789     89 | 88.197 % |
|   7575139 |   10720   173709   509121 |   690098   145687    119 | 88.197 % |
|  11362814 |   10720   173709   509121 |   759107   797917    177 | 88.197 % |
|  17044326 |   10720   173709   509121 |   835018   520941    109 | 88.197 % |
|  25566595 |   10720   173709   509121 |   918520   700931     80 | 88.197 % |
===============================================================================
restarts              : 49150
conflicts             : 35873545       (8521 /sec)
decisions             : 157404217      (0.00 % random) (37386 /sec)
propagations          : 2620458095     (622401 /sec)
conflict literals     : 5361352374     (11.68 % deleted)
Memory used           : 6929.00 MB
CPU time              : 4210.24 s

SATISFIABLE
